
Gurobi 7.5.2 (linux64) logging started Sat Jun 23 18:08:34 2018

Changed value of parameter LogFile to result/ilp/simNo_9-n_100-m_40-s_4-minVAF_0.05-cov_2000-k_1-fn_0.05-fp_0.0001-na_0.15.ILP.gurobiSolverLog
   Prev: gurobi.log  Default: 
Changed value of parameter TimeLimit to 86400.0
   Prev: 1e+100  Min: 0.0  Max: 1e+100  Default: 1e+100
Optimize a model with 1265601 rows, 330440 columns and 3489120 nonzeros
Variable types: 0 continuous, 330440 integer (330440 binary)
Coefficient statistics:
  Matrix range     [3e-03, 3e+00]
  Objective range  [2e-01, 9e+00]
  Bounds range     [1e+00, 1e+00]
  RHS range        [3e-01, 2e+00]
Found heuristic solution: objective -15233.73757
Presolve removed 321111 rows and 214559 columns (presolve time = 5s) ...
Presolve removed 337651 rows and 214559 columns (presolve time = 13s) ...
Presolve removed 338133 rows and 214559 columns (presolve time = 15s) ...
Presolve removed 338705 rows and 214559 columns (presolve time = 20s) ...
Presolve removed 339154 rows and 214559 columns (presolve time = 25s) ...
Presolve removed 339154 rows and 214559 columns (presolve time = 30s) ...
Presolve removed 339154 rows and 214559 columns (presolve time = 35s) ...
Presolve removed 339154 rows and 214559 columns (presolve time = 40s) ...
Presolve removed 339154 rows and 214559 columns (presolve time = 45s) ...
Presolve removed 339154 rows and 214559 columns (presolve time = 50s) ...
Presolve removed 339154 rows and 214559 columns (presolve time = 56s) ...
Presolve removed 339154 rows and 214559 columns
Presolve time: 58.67s
Presolved: 926447 rows, 115881 columns, 2570505 nonzeros
Variable types: 0 continuous, 115881 integer (115881 binary)
Presolve removed 0 rows and 0 columns (presolve time = 6s) ...
Presolved: 115881 rows, 1042328 columns, 2686386 nonzeros

Presolve removed 115881 rows and 1042328 columns

Root simplex log...

Iteration    Objective       Primal Inf.    Dual Inf.      Time
       0    3.5621608e+00   0.000000e+00   9.246800e+04     73s
    7227   -1.1863388e+02   0.000000e+00   1.417210e+05     75s
   17029   -2.1166144e+02   0.000000e+00   5.269075e+04     80s
   17709   -2.1346471e+02   0.000000e+00   0.000000e+00     82s
   17709   -2.1346471e+02   0.000000e+00   0.000000e+00     86s

Root relaxation: objective -2.134647e+02, 17709 iterations, 22.89 seconds
Total elapsed time = 123.51s
Total elapsed time = 140.44s
Total elapsed time = 154.37s

    Nodes    |    Current Node    |     Objective Bounds      |     Work
 Expl Unexpl |  Obj  Depth IntInf | Incumbent    BestBd   Gap | It/Node Time

     0     0 -213.46471    0  723 -15233.738 -213.46471  98.6%     -  168s
H    0     0                    -247.0859139 -213.46471  13.6%     -  180s
     0     0 -220.77367    0  643 -247.08591 -220.77367  10.6%     -  207s
     0     0 -220.77367    0  636 -247.08591 -220.77367  10.6%     -  231s
     0     0 -224.85129    0  551 -247.08591 -224.85129  9.00%     -  264s
     0     0 -224.85129    0  534 -247.08591 -224.85129  9.00%     -  279s
     0     0 -226.39365    0  672 -247.08591 -226.39365  8.37%     -  304s
     0     0 -226.57293    0  682 -247.08591 -226.57293  8.30%     -  324s
     0     0 -229.31724    0  663 -247.08591 -229.31724  7.19%     -  352s
     0     0 -229.31724    0  663 -247.08591 -229.31724  7.19%     -  370s
     0     0 -229.54441    0  613 -247.08591 -229.54441  7.10%     -  390s
     0     0 -229.90986    0  688 -247.08591 -229.90986  6.95%     -  409s
     0     0 -230.05261    0  687 -247.08591 -230.05261  6.89%     -  422s
     0     0 -230.05261    0  689 -247.08591 -230.05261  6.89%     -  430s
     0     0 -231.64483    0  735 -247.08591 -231.64483  6.25%     -  446s
     0     0 -232.61418    0  753 -247.08591 -232.61418  5.86%     -  468s
     0     0 -232.61418    0  750 -247.08591 -232.61418  5.86%     -  478s
     0     0 -233.34507    0  716 -247.08591 -233.34507  5.56%     -  504s
     0     0 -233.44253    0  720 -247.08591 -233.44253  5.52%     -  523s
     0     0 -233.44253    0  703 -247.08591 -233.44253  5.52%     -  532s
     0     0 -234.66069    0  580 -247.08591 -234.66069  5.03%     -  557s
     0     0 -234.66069    0  649 -247.08591 -234.66069  5.03%     -  580s
     0     0 -236.41484    0  727 -247.08591 -236.41484  4.32%     -  606s
     0     0 -236.85337    0  726 -247.08591 -236.85337  4.14%     -  627s
     0     0 -237.16661    0  730 -247.08591 -237.16661  4.01%     -  638s
     0     0 -237.29191    0  730 -247.08591 -237.29191  3.96%     -  648s
     0     0 -237.29191    0  730 -247.08591 -237.29191  3.96%     -  657s
     0     0 -238.94861    0  719 -247.08591 -238.94861  3.29%     -  674s
     0     0 -238.94861    0  731 -247.08591 -238.94861  3.29%     -  688s
     0     0 -240.75148    0  737 -247.08591 -240.75148  2.56%     -  713s
     0     0 -240.75148    0  734 -247.08591 -240.75148  2.56%     -  731s
     0     0 -241.60420    0  699 -247.08591 -241.60420  2.22%     -  755s
     0     0 -241.72088    0  748 -247.08591 -241.72088  2.17%     -  775s
     0     0 -241.72088    0  746 -247.08591 -241.72088  2.17%     -  790s
     0     0 -242.21328    0  703 -247.08591 -242.21328  1.97%     -  812s
     0     0 -242.21328    0  703 -247.08591 -242.21328  1.97%     -  828s
     0     0 -242.21328    0  707 -247.08591 -242.21328  1.97%     -  847s
     0     0 -242.79799    0  750 -247.08591 -242.79799  1.74%     -  865s
     0     0 -243.18780    0  669 -247.08591 -243.18780  1.58%     -  877s
     0     0 -243.18780    0  718 -247.08591 -243.18780  1.58%     -  885s
     0     0 -243.18780    0  627 -247.08591 -243.18780  1.58%     -  949s
     0     0 -243.18780    0  704 -247.08591 -243.18780  1.58%     -  963s
     0     0 -243.18780    0  704 -247.08591 -243.18780  1.58%     -  979s
     0     0 -244.47762    0  674 -247.08591 -244.47762  1.06%     - 1049s
     0     0 -244.64959    0  662 -247.08591 -244.64959  0.99%     - 1064s
     0     0 -244.64959    0  665 -247.08591 -244.64959  0.99%     - 1074s
     0     0 -244.64959    0  472 -247.08591 -244.64959  0.99%     - 1130s
     0     0 -244.64959    0  165 -247.08591 -244.64959  0.99%     - 1191s
     0     0 -244.64959    0  138 -247.08591 -244.64959  0.99%     - 1193s
     0     0 -244.64959    0  135 -247.08591 -244.64959  0.99%     - 1194s
     0     0 -244.64959    0   88 -247.08591 -244.64959  0.99%     - 1194s
     0     0 -244.64959    0  149 -247.08591 -244.64959  0.99%     - 1194s
     0     0 -244.64959    0  149 -247.08591 -244.64959  0.99%     - 1195s
     0     0 -245.62412    0   34 -247.08591 -245.62412  0.59%     - 1196s
     0     0 -245.62412    0  163 -247.08591 -245.62412  0.59%     - 1201s
     0     0 -245.62412    0  116 -247.08591 -245.62412  0.59%     - 1202s
     0     0 -245.62412    0   82 -247.08591 -245.62412  0.59%     - 1202s
     0     0 -245.62412    0   72 -247.08591 -245.62412  0.59%     - 1203s
     0     0     cutoff    0      -247.08591 -247.08591  0.00%     - 1203s

Cutting planes:
  Gomory: 6
  Zero half: 37

Explored 1 nodes (45525 simplex iterations) in 1204.18 seconds
Thread count was 1 (of 80 available processors)

Solution count 4: -247.086 -247.086 -247.086 -15233.7 

Optimal solution found (tolerance 1.00e-04)
Best objective -2.470859138652e+02, best bound -2.470859138652e+02, gap 0.0000%
